problems/factor/f13.2.cnf
c by Paul Purdom and Amr Sabry
c
c Circuit for product = 13 [True,True,False,True]
c Variables for output [msb,...,lsb]: [29,22,16,11,6]
c Variables for first input [msb,...,lsb]: [3,2,1]
c Variables for second input [msb,...,lsb]: [5,4]
c
c
p cnf 29 101
1 4 -6 0
1 -4 -6 0
-1 4 -6 0
-1 -4 6 0
2 4 -7 0
2 -4 -7 0
-2 4 -7 0
-2 -4 7 0
3 4 -8 0
3 -4 -8 0
-3 4 -8 0
-3 -4 8 0
1 5 -9 0
1 -5 -9 0
-1 5 -9 0
-1 -5 9 0
7 9 -10 0
7 -9 -10 0
-7 9 -10 0
-7 -9 10 0
7 9 -11 0
7 -9 11 0
-7 9 11 0
-7 -9 -11 0
2 5 -12 0
2 -5 -12 0
-2 5 -12 0
-2 -5 12 0
8 12 -13 0
8 -12 -13 0
-8 12 -13 0
-8 -12 13 0
8 12 -14 0
8 -12 14 0
-8 12 14 0
-8 -12 -14 0
3 5 -15 0
3 -5 -15 0
-3 5 -15 0
-3 -5 15 0
10 14 -16 0
10 -14 16 0
-10 14 16 0
-10 -14 -16 0
10 14 -17 0
10 -14 -17 0
-10 14 -17 0
-10 -14 17 0
10 14 -18 0
10 -14 18 0
-10 14 18 0
-10 -14 18 0
13 15 -19 0
13 -15 19 0
-13 15 19 0
-13 -15 -19 0
13 15 -20 0
13 -15 -20 0
-13 15 -20 0
-13 -15 20 0
13 15 -21 0
13 -15 21 0
-13 15 21 0
-13 -15 21 0
17 19 -22 0
17 -19 22 0
-17 -19 -22 0
-17 19 22 0
18 19 -23 0
18 -19 23 0
-18 -19 -23 0
-18 19 23 0
20 21 -24 0
20 -21 24 0
-20 21 24 0
-20 -21 24 0
20 18 -25 0
20 -18 25 0
-20 18 25 0
-20 -18 25 0
24 25 -26 0
24 -25 -26 0
-24 25 -26 0
-24 -25 26 0
20 21 -27 0
20 -21 27 0
-20 21 27 0
-20 -21 27 0
20 17 -28 0
20 -17 28 0
-20 17 28 0
-20 -17 28 0
27 28 -29 0
27 -28 -29 0
-27 28 -29 0
-27 -28 29 0
6 0
-11 0
16 0
22 0
-29 0


