performanceLessSmall/f13.2
#PROBLEM: f13.2 & longest chain length: 11 & average chain length: 2.7097 & median chain length: 9 & varNum: 29 & clauseNum: 101 & chains: 31 & timeout: 30s 
#original chain with index 56: [27, 127, 126, 109, 90, 124, 40, 56, 116, 30, 25] 
#trying: [25, 90, 40, 116, 126, 30, 27, 56, 124, 127, 109]
0	1       11583101517
#trying: [56, 124, 30, 116, 27, 127, 109, 126, 40, 90, 25]
1	Timeout 
#trying: [27, 116, 40, 124, 25, 126, 30, 90, 127, 56, 109]
2	Timeout 
#trying: [124, 109, 127, 116, 30, 126, 25, 40, 56, 90, 27]
3	Timeout 
#trying: [124, 127, 116, 56, 109, 90, 25, 126, 27, 30, 40]
4	Timeout 
#trying: [30, 127, 25, 126, 90, 40, 27, 56, 124, 109, 116]
5	Timeout 
#trying: [56, 124, 127, 30, 90, 126, 40, 109, 27, 116, 25]
6	Timeout 
#trying: [40, 56, 90, 124, 109, 116, 127, 30, 25, 126, 27]
7	1       2027469456
#trying: [25, 126, 116, 127, 109, 27, 90, 56, 124, 30, 40]
8	Timeout 
#trying: [25, 90, 116, 109, 56, 124, 40, 126, 127, 30, 27]
9	1       3998140485
#PROBLEM: f13.2 & longest chain length: 11 & average chain length: 2.7097 & median chain length: 9 & varNum: 29 & clauseNum: 101 & chains: 31 & timeout: 30s 
#original chain with index 56: [27, 127, 126, 109, 90, 124, 40, 56, 116, 30, 25] 
#trying: [126, 127, 40, 25, 116, 56, 90, 109, 124, 30, 27]
